NAME : mtspf.pid7280.gtsp.123480443.tour
COMMENT : Length = 123480443
COMMENT : Found by LKH [Keld Helsgaun] Sat Jan  4 17:56:30 2025
TYPE : TOUR
DIMENSION : 83
TOUR_SECTION
1
49
50
51
48
9
10
11
8
14
15
12
13
4
5
6
7
56
57
58
59
3
55
52
53
54
78
79
76
77
46
47
44
45
37
38
39
36
23
20
21
22
75
72
73
74
65
66
67
64
2
29
30
31
28
16
17
18
19
35
32
33
34
60
61
62
63
40
41
42
43
83
80
81
82
27
24
25
26
71
68
69
70
-1
EOF
